
Welcome to IBM(R) ILOG(R) CPLEX(R) Interactive Optimizer 22.1.1.0
  with Simplex, Mixed Integer & Barrier Optimizers
5725-A06 5725-A29 5724-Y48 5724-Y49 5724-Y54 5724-Y55 5655-Y21
Copyright IBM Corp. 1988, 2022.  All Rights Reserved.

Type 'help' for a list of available commands.
Type 'help' followed by a command name for more
information on commands.

CPLEX> Selected objective sense:  MINIMIZE
Selected objective  name:  00000000
Selected RHS        name:  RHS1
Selected bound      name:  BOUND
Problem 'ee.mps' read.
Read time = 0.03 sec. (3.17 ticks)
CPLEX> New value for time limit in seconds: 7200
CPLEX> New value for parallel optimization mode: -1
CPLEX> New value for default parallel thread count: 40
CPLEX> New value for mixed integer optimality gap tolerance: 1e-13
CPLEX> Version identifier: 22.1.1.0 | 2022-11-28 | 9160aff4d
CPXPARAM_Threads                                 40
CPXPARAM_Parallel                                -1
CPXPARAM_TimeLimit                               7200
CPXPARAM_MIP_Tolerances_MIPGap                   1e-13
Found incumbent of value 0.000000 after 0.00 sec. (0.31 ticks)
Tried aggregator 2 times.
MIP Presolve eliminated 517 rows and 3608 columns.
MIP Presolve modified 5892 coefficients.
Aggregator did 785 substitutions.
Reduced MIP has 3227 rows, 6906 columns, and 25394 nonzeros.
Reduced MIP has 6906 binaries, 0 generals, 0 SOSs, and 0 indicators.
Presolve time = 0.07 sec. (67.46 ticks)
Probing time = 0.03 sec. (5.13 ticks)
Tried aggregator 1 time.
Detecting symmetries...
Reduced MIP has 3227 rows, 6906 columns, and 25394 nonzeros.
Reduced MIP has 6906 binaries, 0 generals, 0 SOSs, and 0 indicators.
Presolve time = 0.02 sec. (19.23 ticks)
Probing time = 0.02 sec. (4.95 ticks)
Clique table members: 16520.
MIP emphasis: balance optimality and feasibility.
MIP search method: dynamic search.
Parallel mode: opportunistic, using up to 40 threads.
Root relaxation solution time = 0.08 sec. (68.93 ticks)

        Nodes                                         Cuts/
   Node  Left     Objective  IInf  Best Integer    Best Bound    ItCnt     Gap

*     0+    0                            0.0000  -1.54000e+13              --- 
*     0+    0                      -3.60000e+12  -1.54000e+13           327.78%
*     0+    0                      -4.80000e+12  -1.54000e+13           220.83%
*     0+    0                      -6.00000e+12  -1.54000e+13           156.67%
*     0+    0                      -7.20000e+12  -1.54000e+13           113.89%
*     0+    0                      -8.40000e+12  -1.54000e+13            83.33%
      0     0  -1.53900e+13    42  -8.40000e+12  -1.53900e+13     1856   83.21%
*     0+    0                      -1.29900e+13  -1.53900e+13            18.48%
*     0+    0                      -1.53900e+13  -1.53900e+13             0.00%
      0     0  -1.53900e+13    87  -1.53900e+13      Cuts: 57     3197    0.00%
      0     0  -1.53900e+13   158  -1.53900e+13      Cuts: 60     3402    0.00%
*     0+    0                      -1.53900e+13  -1.53900e+13             0.00%
*     0+    0                      -1.53900e+13  -1.53900e+13             0.00%
      0     2  -1.53900e+13   158  -1.53900e+13  -1.53900e+13     3402    0.00%
Elapsed time = 1.89 sec. (765.85 ticks, tree = 0.02 MB, solutions = 13)
    498    71        cutoff        -1.53900e+13  -1.53900e+13    14599    0.00%
   1236   303  -1.53900e+13    78  -1.53900e+13  -1.53900e+13    73157    0.00%
   1769   444  -1.53900e+13   132  -1.53900e+13  -1.53900e+13   104052    0.00%
   2003   758        cutoff        -1.53900e+13  -1.53900e+13   208359    0.00%
   2344   798  -1.53900e+13   209  -1.53900e+13  -1.53900e+13   227220    0.00%
   2744  1074        cutoff        -1.53900e+13  -1.53900e+13   369136    0.00%
   3124   987  -1.53900e+13   260  -1.53900e+13  -1.53900e+13   322500    0.00%
   3497  1144  -1.53900e+13   247  -1.53900e+13  -1.53900e+13   410138    0.00%
   3903  1162  -1.53900e+13   250  -1.53900e+13  -1.53900e+13   421317    0.00%
   5218  1288  -1.53900e+13   167  -1.53900e+13  -1.53900e+13   574503    0.00%
Elapsed time = 8.15 sec. (3869.75 ticks, tree = 3.43 MB, solutions = 20)
   6402  1644  -1.53900e+13    94  -1.53900e+13  -1.53900e+13   898285    0.00%
   7381  1859  -1.53900e+13    57  -1.53900e+13  -1.53900e+13  1071564    0.00%
   8608  2172        cutoff        -1.53900e+13  -1.53900e+13  1411967    0.00%
   9597  2228  -1.53900e+13   299  -1.53900e+13  -1.53900e+13  1432654    0.00%
  10450  2732  -1.53900e+13    71  -1.53900e+13  -1.53900e+13  1775572    0.00%

Performing restart 1

Repeating presolve.
Tried aggregator 2 times.
MIP Presolve eliminated 1296 rows and 2921 columns.
MIP Presolve added 8 rows and 0 columns.
MIP Presolve modified 2224 coefficients.
Aggregator did 288 substitutions.
Reduced MIP has 1616 rows, 3670 columns, and 13044 nonzeros.
Reduced MIP has 3670 binaries, 0 generals, 0 SOSs, and 0 indicators.
Presolve time = 0.05 sec. (40.87 ticks)
Tried aggregator 1 time.
Reduced MIP has 1616 rows, 3670 columns, and 13044 nonzeros.
Reduced MIP has 3670 binaries, 0 generals, 0 SOSs, and 0 indicators.
Presolve time = 0.02 sec. (9.45 ticks)
Represolve time = 0.14 sec. (84.45 ticks)
  10992     0  -1.53900e+13   165  -1.53900e+13      Cuts: 28  2316218    0.00%
  10992     0  -1.53900e+13   112  -1.53900e+13      Cuts: 23  2316299    0.00%
  10992     0  -1.53900e+13   274  -1.53900e+13      Cuts: 31  2316613    0.00%
  10992     0  -1.53900e+13   279  -1.53900e+13      Cuts: 45  2317068    0.00%
  10992     0  -1.53900e+13   233  -1.53900e+13      Cuts: 37  2317297    0.00%
  10992     0  -1.53900e+13   349  -1.53900e+13      Cuts: 40  2317683    0.00%
  10992     0  -1.53900e+13   321  -1.53900e+13      Cuts: 55  2317840    0.00%
  10992     0  -1.53900e+13   332  -1.53900e+13      Cuts: 28  2318000    0.00%
  10992     0  -1.53900e+13   244  -1.53900e+13      Cuts: 42  2318122    0.00%
  10992     0  -1.53900e+13   157  -1.53900e+13      Cuts: 45  2318221    0.00%
  10992     0  -1.53900e+13   256  -1.53900e+13      Cuts: 16  2318289    0.00%
  10992     0  -1.53900e+13   191  -1.53900e+13      Cuts: 22  2318346    0.00%
  10992     0  -1.53900e+13   214  -1.53900e+13      Cuts: 16  2318395    0.00%
  10992     0  -1.53900e+13   291  -1.53900e+13      Cuts: 15  2318447    0.00%
  10992     0  -1.53900e+13   265  -1.53900e+13      Cuts: 25  2318472    0.00%

Repeating presolve.
Tried aggregator 2 times.
MIP Presolve eliminated 771 rows and 1628 columns.
MIP Presolve modified 328 coefficients.
Aggregator did 164 substitutions.
Reduced MIP has 670 rows, 1855 columns, and 6207 nonzeros.
Reduced MIP has 1855 binaries, 0 generals, 0 SOSs, and 0 indicators.
Presolve time = 0.02 sec. (15.03 ticks)
Tried aggregator 1 time.
MIP Presolve eliminated 14 rows and 8 columns.
Reduced MIP has 656 rows, 1845 columns, and 6169 nonzeros.
Reduced MIP has 1845 binaries, 0 generals, 0 SOSs, and 0 indicators.
Presolve time = 0.01 sec. (6.24 ticks)
Represolve time = 0.07 sec. (53.75 ticks)
  10992     0  -1.53900e+13   200  -1.53900e+13      Cuts: 25  2320458    0.00%
  10992     0  -1.53900e+13   147  -1.53900e+13      Cuts: 21  2320519    0.00%
  10992     0  -1.53900e+13   205  -1.53900e+13      Cuts: 10  2320576    0.00%
  10992     0  -1.53900e+13   203  -1.53900e+13      Cuts: 16  2320645    0.00%
  10992     0  -1.53900e+13   238  -1.53900e+13      Cuts: 17  2320702    0.00%
  10992     0  -1.53900e+13   221  -1.53900e+13      Cuts: 14  2320751    0.00%
  10992     0  -1.53900e+13   220  -1.53900e+13      Cuts: 19  2320830    0.00%
  10992     0  -1.53900e+13   237  -1.53900e+13       Cuts: 9  2320854    0.00%
  10992     0  -1.53900e+13   238  -1.53900e+13      Cuts: 13  2320905    0.00%
  10992     0  -1.53900e+13   219  -1.53900e+13      Cuts: 15  2320973    0.00%
  10992     0  -1.53900e+13   243  -1.53900e+13       Cuts: 9  2321020    0.00%
  10992     0  -1.53900e+13   258  -1.53900e+13      Cuts: 13  2321073    0.00%
  10992     0  -1.53900e+13   229  -1.53900e+13      Cuts: 10  2321100    0.00%
  10992     0  -1.53900e+13   253  -1.53900e+13      Cuts: 14  2321138    0.00%
  10992     0  -1.53900e+13   235  -1.53900e+13      Cuts: 12  2321199    0.00%
  10992     0  -1.53900e+13   270  -1.53900e+13      Cuts: 10  2321216    0.00%
  10992     2  -1.53900e+13   266  -1.53900e+13  -1.53900e+13  2321216    0.00%

Clique cuts applied:  16
Cover cuts applied:  170
Flow cuts applied:  5
Mixed integer rounding cuts applied:  22
Zero-half cuts applied:  78
Lift and project cuts applied:  2
Gomory fractional cuts applied:  6

Root node processing (before b&c):
  Real time             =    0.94 sec. (754.46 ticks)
Parallel b&c, 40 threads:
  Real time             =   18.08 sec. (12714.03 ticks)
  Sync time (average)   =    1.16 sec.
  Wait time (average)   =    0.05 sec.
                          ------------
Total (root+branch&cut) =   19.02 sec. (13468.49 ticks)

Solution pool: 31 solutions saved.

MIP - Integer optimal solution:  Objective = -1.5389999388e+13
Solution time =   19.13 sec.  Iterations = 2330542  Nodes = 11202
Deterministic time = 13468.52 ticks  (704.02 ticks/sec)

CPLEX> Solution 'p32' written to file 'ee.sol'.
CPLEX> 